(set-info :smt-lib-version 2.6)
(set-logic QF_FP)
(set-info :source |
Generated by: Chenqi Cui
Generated on: 2026-01-04
Generator: AutoSMTGen
Application: Generating SMT constraints with small solution spaces to make them challenging for SMT solvers
Target solver: Z3, CVC5, Bitwuzla
|)
(set-info :license "https://creativecommons.org/licenses/by/4.0/")
(set-info :category "industrial")
(set-info :status unsat)
; benchmark generated from python API

(declare-fun x10 () (_ FloatingPoint 11 53))
(declare-fun x9 () (_ FloatingPoint 11 53))
(declare-fun x8 () (_ FloatingPoint 11 53))
(declare-fun x7 () (_ FloatingPoint 11 53))
(declare-fun x6 () (_ FloatingPoint 11 53))
(declare-fun x5 () (_ FloatingPoint 11 53))
(declare-fun x4 () (_ FloatingPoint 11 53))
(declare-fun x3 () (_ FloatingPoint 11 53))
(declare-fun x2 () (_ FloatingPoint 11 53))
(declare-fun x1 () (_ FloatingPoint 11 53))
(declare-fun x0 () (_ FloatingPoint 11 53))
(assert
 (let ((?x21 (fp.add roundNearestTiesToEven (fp.mul roundNearestTiesToEven (fp #b1 #b10000000101 #x62a6706bb28e5) x0) (fp.mul roundNearestTiesToEven (fp #b0 #b10000000010 #x3e9affc87cdc3) x1))))
 (let ((?x24 (fp.add roundNearestTiesToEven ?x21 (fp.mul roundNearestTiesToEven (fp #b0 #b10000000100 #xa7e4a33f52d7e) x2))))
 (let ((?x27 (fp.add roundNearestTiesToEven ?x24 (fp.mul roundNearestTiesToEven (fp #b0 #b10000000000 #x5d157cd01472c) x3))))
 (let ((?x30 (fp.add roundNearestTiesToEven ?x27 (fp.mul roundNearestTiesToEven (fp #b1 #b10000000011 #x8def4d2915b6b) x4))))
 (let ((?x33 (fp.add roundNearestTiesToEven ?x30 (fp.mul roundNearestTiesToEven (fp #b1 #b10000000101 #x35e695ae95926) x5))))
 (let ((?x36 (fp.add roundNearestTiesToEven ?x33 (fp.mul roundNearestTiesToEven (fp #b0 #b10000000101 #x146374277ce74) x6))))
 (let ((?x39 (fp.add roundNearestTiesToEven ?x36 (fp.mul roundNearestTiesToEven (fp #b0 #b10000000100 #x553c382b51bca) x7))))
 (let ((?x42 (fp.add roundNearestTiesToEven ?x39 (fp.mul roundNearestTiesToEven (fp #b0 #b10000000101 #x628f5cfa9be59) x8))))
 (let ((?x45 (fp.add roundNearestTiesToEven ?x42 (fp.mul roundNearestTiesToEven (fp #b0 #b10000000101 #x0115e101518ea) x9))))
 (let ((?x48 (fp.add roundNearestTiesToEven ?x45 (fp.mul roundNearestTiesToEven (fp #b0 #b10000000011 #x9eb447bdd72d3) x10))))
 (fp.leq ?x48 (fp #b1 #b10000000101 #x13e016f88e634)))))))))))))
(assert
 (let ((?x72 (fp.add roundNearestTiesToEven (fp.mul roundNearestTiesToEven (fp #b0 #b10000000101 #x204c97fa67c4b) x0) (fp.mul roundNearestTiesToEven (fp #b0 #b10000000011 #x0d84d6a031772) x1))))
 (let ((?x75 (fp.add roundNearestTiesToEven ?x72 (fp.mul roundNearestTiesToEven (fp #b0 #b10000000101 #x0ebb3bd466873) x2))))
 (let ((?x78 (fp.add roundNearestTiesToEven ?x75 (fp.mul roundNearestTiesToEven (fp #b0 #b10000000100 #x4a81adb055550) x3))))
 (let ((?x81 (fp.add roundNearestTiesToEven ?x78 (fp.mul roundNearestTiesToEven (fp #b0 #b10000000100 #x32e749c7dc0bf) x4))))
 (let ((?x84 (fp.add roundNearestTiesToEven ?x81 (fp.mul roundNearestTiesToEven (fp #b1 #b10000000101 #x93bcb0ed2c501) x5))))
 (let ((?x87 (fp.add roundNearestTiesToEven ?x84 (fp.mul roundNearestTiesToEven (fp #b1 #b10000000100 #xc105ac64670dd) x6))))
 (let ((?x90 (fp.add roundNearestTiesToEven ?x87 (fp.mul roundNearestTiesToEven (fp #b0 #b10000000101 #x12ed8eb1277ac) x7))))
 (let ((?x93 (fp.add roundNearestTiesToEven ?x90 (fp.mul roundNearestTiesToEven (fp #b1 #b10000000101 #x6a8b8dbecb509) x8))))
 (let ((?x96 (fp.add roundNearestTiesToEven ?x93 (fp.mul roundNearestTiesToEven (fp #b1 #b10000000011 #xfede4955272a0) x9))))
 (let ((?x99 (fp.add roundNearestTiesToEven ?x96 (fp.mul roundNearestTiesToEven (fp #b0 #b10000000001 #x7cecef7c2f4c8) x10))))
 (fp.leq ?x99 (fp #b0 #b10000000010 #x5f8926bb83140)))))))))))))
(assert
 (let ((?x106 (fp.add roundNearestTiesToEven (fp.mul roundNearestTiesToEven (fp #b1 #b10000000100 #x2cca6c47c2ff2) x0) (fp.mul roundNearestTiesToEven (fp #b0 #b10000000011 #xfb4a3cbc9d12f) x1))))
 (let ((?x109 (fp.add roundNearestTiesToEven ?x106 (fp.mul roundNearestTiesToEven (fp #b0 #b10000000011 #xf78b141500bd2) x2))))
 (let ((?x112 (fp.add roundNearestTiesToEven ?x109 (fp.mul roundNearestTiesToEven (fp #b0 #b10000000010 #x1ba4c15abdc7d) x3))))
 (let ((?x115 (fp.add roundNearestTiesToEven ?x112 (fp.mul roundNearestTiesToEven (fp #b0 #b10000000011 #xcd642f7ba5446) x4))))
 (let ((?x118 (fp.add roundNearestTiesToEven ?x115 (fp.mul roundNearestTiesToEven (fp #b1 #b10000000100 #xc17d2ba070c27) x5))))
 (let ((?x121 (fp.add roundNearestTiesToEven ?x118 (fp.mul roundNearestTiesToEven (fp #b0 #b10000000101 #x712ba5f691d66) x6))))
 (let ((?x124 (fp.add roundNearestTiesToEven ?x121 (fp.mul roundNearestTiesToEven (fp #b0 #b10000000001 #x8adddbac4e5ce) x7))))
 (let ((?x127 (fp.add roundNearestTiesToEven ?x124 (fp.mul roundNearestTiesToEven (fp #b0 #b10000000011 #x3a4e97275244c) x8))))
 (let ((?x130 (fp.add roundNearestTiesToEven ?x127 (fp.mul roundNearestTiesToEven (fp #b1 #b10000000101 #x5d7e4c761b3fa) x9))))
 (let ((?x133 (fp.add roundNearestTiesToEven ?x130 (fp.mul roundNearestTiesToEven (fp #b0 #b10000000101 #x5968eb94248f2) x10))))
 (fp.leq ?x133 (fp #b1 #b10000000100 #x4e0ec7ae0a67a)))))))))))))
(assert
 (let ((?x140 (fp.add roundNearestTiesToEven (fp.mul roundNearestTiesToEven (fp #b1 #b10000000101 #x5d7363a728940) x0) (fp.mul roundNearestTiesToEven (fp #b0 #b10000000100 #x8ac3179cfe4e0) x1))))
 (let ((?x143 (fp.add roundNearestTiesToEven ?x140 (fp.mul roundNearestTiesToEven (fp #b0 #b10000000100 #xfd34d2d54b1be) x2))))
 (let ((?x146 (fp.add roundNearestTiesToEven ?x143 (fp.mul roundNearestTiesToEven (fp #b0 #b10000000100 #x826ca0360ac59) x3))))
 (let ((?x149 (fp.add roundNearestTiesToEven ?x146 (fp.mul roundNearestTiesToEven (fp #b0 #b10000000100 #xb2e7c3bbbff44) x4))))
 (let ((?x152 (fp.add roundNearestTiesToEven ?x149 (fp.mul roundNearestTiesToEven (fp #b0 #b10000000101 #x214b06cd37159) x5))))
 (let ((?x155 (fp.add roundNearestTiesToEven ?x152 (fp.mul roundNearestTiesToEven (fp #b1 #b10000000001 #x73a52e0f72be0) x6))))
 (let ((?x158 (fp.add roundNearestTiesToEven ?x155 (fp.mul roundNearestTiesToEven (fp #b0 #b10000000101 #x32dc655fdeff3) x7))))
 (let ((?x161 (fp.add roundNearestTiesToEven ?x158 (fp.mul roundNearestTiesToEven (fp #b0 #b10000000100 #x5942f9cf6fb9b) x8))))
 (let ((?x164 (fp.add roundNearestTiesToEven ?x161 (fp.mul roundNearestTiesToEven (fp #b1 #b10000000101 #x4d3a3678ef80e) x9))))
 (let ((?x167 (fp.add roundNearestTiesToEven ?x164 (fp.mul roundNearestTiesToEven (fp #b1 #b10000000101 #x34213452ffadb) x10))))
 (fp.leq ?x167 (fp #b1 #b10000000101 #x7a57a4531f9b8)))))))))))))
(assert
 (let ((?x174 (fp.add roundNearestTiesToEven (fp.mul roundNearestTiesToEven (fp #b1 #b10000000011 #xebfa2f8584c65) x0) (fp.mul roundNearestTiesToEven (fp #b0 #b10000000101 #xba5882f9ff528) x1))))
 (let ((?x177 (fp.add roundNearestTiesToEven ?x174 (fp.mul roundNearestTiesToEven (fp #b0 #b10000000100 #xeae4a659cc58d) x2))))
 (let ((?x180 (fp.add roundNearestTiesToEven ?x177 (fp.mul roundNearestTiesToEven (fp #b0 #b10000000100 #x9a4aadb87cb80) x3))))
 (let ((?x183 (fp.add roundNearestTiesToEven ?x180 (fp.mul roundNearestTiesToEven (fp #b0 #b10000000101 #xa73314f8f82cb) x4))))
 (let ((?x186 (fp.add roundNearestTiesToEven ?x183 (fp.mul roundNearestTiesToEven (fp #b0 #b10000000101 #x6b63a77fae07c) x5))))
 (let ((?x189 (fp.add roundNearestTiesToEven ?x186 (fp.mul roundNearestTiesToEven (fp #b1 #b10000000100 #x2c0fa850dddaa) x6))))
 (let ((?x192 (fp.add roundNearestTiesToEven ?x189 (fp.mul roundNearestTiesToEven (fp #b1 #b10000000011 #xcddd81df627d9) x7))))
 (let ((?x195 (fp.add roundNearestTiesToEven ?x192 (fp.mul roundNearestTiesToEven (fp #b1 #b10000000100 #xd5f0e37436f17) x8))))
 (let ((?x198 (fp.add roundNearestTiesToEven ?x195 (fp.mul roundNearestTiesToEven (fp #b0 #b10000000101 #x332d5e226edcc) x9))))
 (let ((?x201 (fp.add roundNearestTiesToEven ?x198 (fp.mul roundNearestTiesToEven (fp #b1 #b10000000101 #x9aa97c178f22e) x10))))
 (fp.leq ?x201 (fp #b0 #b10000000010 #xb6767a4ede910)))))))))))))
(assert
 (let ((?x208 (fp.add roundNearestTiesToEven (fp.mul roundNearestTiesToEven (fp #b0 #b10000000101 #xa58cb55c7ded0) x0) (fp.mul roundNearestTiesToEven (fp #b0 #b10000000001 #x1629906bccfb8) x1))))
 (let ((?x211 (fp.add roundNearestTiesToEven ?x208 (fp.mul roundNearestTiesToEven (fp #b1 #b10000000101 #x137b36fc3a6f1) x2))))
 (let ((?x214 (fp.add roundNearestTiesToEven ?x211 (fp.mul roundNearestTiesToEven (fp #b1 #b10000000100 #x6d52a897b163e) x3))))
 (let ((?x217 (fp.add roundNearestTiesToEven ?x214 (fp.mul roundNearestTiesToEven (fp #b1 #b10000000100 #xf373882c5ee02) x4))))
 (let ((?x220 (fp.add roundNearestTiesToEven ?x217 (fp.mul roundNearestTiesToEven (fp #b1 #b10000000101 #x7fe54df78689a) x5))))
 (let ((?x223 (fp.add roundNearestTiesToEven ?x220 (fp.mul roundNearestTiesToEven (fp #b0 #b10000000001 #x07a17859ccf44) x6))))
 (let ((?x226 (fp.add roundNearestTiesToEven ?x223 (fp.mul roundNearestTiesToEven (fp #b0 #b10000000010 #x6b55cf95c56f2) x7))))
 (let ((?x229 (fp.add roundNearestTiesToEven ?x226 (fp.mul roundNearestTiesToEven (fp #b0 #b10000000100 #x3a8cf56179187) x8))))
 (let ((?x232 (fp.add roundNearestTiesToEven ?x229 (fp.mul roundNearestTiesToEven (fp #b1 #b10000000101 #x024c1c664073f) x9))))
 (let ((?x235 (fp.add roundNearestTiesToEven ?x232 (fp.mul roundNearestTiesToEven (fp #b1 #b10000000101 #xd1b9011d0df5f) x10))))
 (fp.leq ?x235 (fp #b1 #b10000000100 #x3443717de4268)))))))))))))
(assert
 (let ((?x242 (fp.add roundNearestTiesToEven (fp.mul roundNearestTiesToEven (fp #b0 #b10000000101 #x29ca1346a56b9) x0) (fp.mul roundNearestTiesToEven (fp #b1 #b10000000100 #xdf35bbaf465ff) x1))))
 (let ((?x245 (fp.add roundNearestTiesToEven ?x242 (fp.mul roundNearestTiesToEven (fp #b0 #b10000000011 #x9b2666074145f) x2))))
 (let ((?x248 (fp.add roundNearestTiesToEven ?x245 (fp.mul roundNearestTiesToEven (fp #b0 #b10000000101 #x62a4abac21509) x3))))
 (let ((?x251 (fp.add roundNearestTiesToEven ?x248 (fp.mul roundNearestTiesToEven (fp #b1 #b10000000100 #x82801cf7a08a7) x4))))
 (let ((?x254 (fp.add roundNearestTiesToEven ?x251 (fp.mul roundNearestTiesToEven (fp #b0 #b10000000000 #x896ddccfdc20e) x5))))
 (let ((?x257 (fp.add roundNearestTiesToEven ?x254 (fp.mul roundNearestTiesToEven (fp #b0 #b10000000101 #xac1206b0f889f) x6))))
 (let ((?x260 (fp.add roundNearestTiesToEven ?x257 (fp.mul roundNearestTiesToEven (fp #b0 #b10000000000 #x9f6f09224f375) x7))))
 (let ((?x263 (fp.add roundNearestTiesToEven ?x260 (fp.mul roundNearestTiesToEven (fp #b1 #b10000000101 #x552142c95da0e) x8))))
 (let ((?x266 (fp.add roundNearestTiesToEven ?x263 (fp.mul roundNearestTiesToEven (fp #b0 #b10000000101 #x69811d6acb5e8) x9))))
 (let ((?x269 (fp.add roundNearestTiesToEven ?x266 (fp.mul roundNearestTiesToEven (fp #b0 #b10000000100 #xe0c6de322bdb0) x10))))
 (fp.leq ?x269 (fp #b1 #b10000000011 #xe8ecffbf5135c)))))))))))))
(assert
 (let ((?x276 (fp.add roundNearestTiesToEven (fp.mul roundNearestTiesToEven (fp #b1 #b10000000101 #x29ab180a5b1be) x0) (fp.mul roundNearestTiesToEven (fp #b1 #b10000000101 #x619840d5ea8ed) x1))))
 (let ((?x279 (fp.add roundNearestTiesToEven ?x276 (fp.mul roundNearestTiesToEven (fp #b1 #b10000000100 #x25130f83da8e5) x2))))
 (let ((?x282 (fp.add roundNearestTiesToEven ?x279 (fp.mul roundNearestTiesToEven (fp #b0 #b10000000100 #x63cf4354b13e2) x3))))
 (let ((?x285 (fp.add roundNearestTiesToEven ?x282 (fp.mul roundNearestTiesToEven (fp #b1 #b10000000101 #x60509ef4d1c8f) x4))))
 (let ((?x288 (fp.add roundNearestTiesToEven ?x285 (fp.mul roundNearestTiesToEven (fp #b1 #b10000000101 #x2d46fb7c62017) x5))))
 (let ((?x291 (fp.add roundNearestTiesToEven ?x288 (fp.mul roundNearestTiesToEven (fp #b0 #b10000000011 #x3005e8c5898ea) x6))))
 (let ((?x294 (fp.add roundNearestTiesToEven ?x291 (fp.mul roundNearestTiesToEven (fp #b1 #b01111111111 #xb172a6e53ddbd) x7))))
 (let ((?x297 (fp.add roundNearestTiesToEven ?x294 (fp.mul roundNearestTiesToEven (fp #b1 #b10000000011 #x4159bf52d7c0a) x8))))
 (let ((?x300 (fp.add roundNearestTiesToEven ?x297 (fp.mul roundNearestTiesToEven (fp #b0 #b10000000101 #x85f4771ceeff1) x9))))
 (let ((?x303 (fp.add roundNearestTiesToEven ?x300 (fp.mul roundNearestTiesToEven (fp #b1 #b10000000101 #x559f8344ea1ee) x10))))
 (fp.leq ?x303 (fp #b0 #b10000000011 #x775e58e074450)))))))))))))
(assert
 (let ((?x310 (fp.add roundNearestTiesToEven (fp.mul roundNearestTiesToEven (fp #b0 #b10000000101 #xb0880a06dfbce) x0) (fp.mul roundNearestTiesToEven (fp #b1 #b10000000011 #x4aca5bb85e967) x1))))
 (let ((?x313 (fp.add roundNearestTiesToEven ?x310 (fp.mul roundNearestTiesToEven (fp #b0 #b10000000101 #x82ea35b04b9cf) x2))))
 (let ((?x316 (fp.add roundNearestTiesToEven ?x313 (fp.mul roundNearestTiesToEven (fp #b1 #b10000000101 #x1308b516d5c97) x3))))
 (let ((?x319 (fp.add roundNearestTiesToEven ?x316 (fp.mul roundNearestTiesToEven (fp #b0 #b10000000010 #x3459aba4b715c) x4))))
 (let ((?x322 (fp.add roundNearestTiesToEven ?x319 (fp.mul roundNearestTiesToEven (fp #b0 #b10000000101 #x1064c52bbbd3e) x5))))
 (let ((?x325 (fp.add roundNearestTiesToEven ?x322 (fp.mul roundNearestTiesToEven (fp #b1 #b10000000000 #xd432ab9df8a4c) x6))))
 (let ((?x328 (fp.add roundNearestTiesToEven ?x325 (fp.mul roundNearestTiesToEven (fp #b1 #b10000000101 #xa3a068efdee88) x7))))
 (let ((?x331 (fp.add roundNearestTiesToEven ?x328 (fp.mul roundNearestTiesToEven (fp #b0 #b10000000010 #x28d7779e959cc) x8))))
 (let ((?x334 (fp.add roundNearestTiesToEven ?x331 (fp.mul roundNearestTiesToEven (fp #b0 #b10000000100 #x28f9ed802f51c) x9))))
 (let ((?x337 (fp.add roundNearestTiesToEven ?x334 (fp.mul roundNearestTiesToEven (fp #b0 #b10000000010 #x68722b95f3677) x10))))
 (fp.leq ?x337 (fp #b0 #b10000000010 #x0f4554a9815d8)))))))))))))
(assert
 (let ((?x344 (fp.add roundNearestTiesToEven (fp.mul roundNearestTiesToEven (fp #b1 #b01111111111 #x018a24bd41e90) x0) (fp.mul roundNearestTiesToEven (fp #b0 #b10000000101 #x95620a0f6c419) x1))))
 (let ((?x347 (fp.add roundNearestTiesToEven ?x344 (fp.mul roundNearestTiesToEven (fp #b0 #b10000000101 #x3d6852d094542) x2))))
 (let ((?x350 (fp.add roundNearestTiesToEven ?x347 (fp.mul roundNearestTiesToEven (fp #b1 #b10000000100 #xb3fe75bfc540c) x3))))
 (let ((?x353 (fp.add roundNearestTiesToEven ?x350 (fp.mul roundNearestTiesToEven (fp #b1 #b10000000101 #x46445f01835b2) x4))))
 (let ((?x356 (fp.add roundNearestTiesToEven ?x353 (fp.mul roundNearestTiesToEven (fp #b0 #b10000000101 #x5eda2a8dbbfe3) x5))))
 (let ((?x359 (fp.add roundNearestTiesToEven ?x356 (fp.mul roundNearestTiesToEven (fp #b0 #b10000000010 #x9f93cdb8ca643) x6))))
 (let ((?x362 (fp.add roundNearestTiesToEven ?x359 (fp.mul roundNearestTiesToEven (fp #b0 #b10000000011 #x194d746d7fe56) x7))))
 (let ((?x365 (fp.add roundNearestTiesToEven ?x362 (fp.mul roundNearestTiesToEven (fp #b0 #b10000000011 #x5c879b57e32c0) x8))))
 (let ((?x368 (fp.add roundNearestTiesToEven ?x365 (fp.mul roundNearestTiesToEven (fp #b1 #b10000000101 #x6aa19a4f8327a) x9))))
 (let ((?x371 (fp.add roundNearestTiesToEven ?x368 (fp.mul roundNearestTiesToEven (fp #b0 #b10000000101 #x387afaf96db4e) x10))))
 (fp.leq ?x371 (fp #b1 #b01111111110 #xdbfaaceb0f780)))))))))))))
(assert
 (let ((?x378 (fp.add roundNearestTiesToEven (fp.mul roundNearestTiesToEven (fp #b1 #b10000000101 #x2027a0920dc4f) x0) (fp.mul roundNearestTiesToEven (fp #b0 #b10000000100 #x97f68e1e8be61) x1))))
 (let ((?x381 (fp.add roundNearestTiesToEven ?x378 (fp.mul roundNearestTiesToEven (fp #b1 #b10000000100 #xc84944b424214) x2))))
 (let ((?x384 (fp.add roundNearestTiesToEven ?x381 (fp.mul roundNearestTiesToEven (fp #b1 #b10000000100 #xafd811039e4e8) x3))))
 (let ((?x387 (fp.add roundNearestTiesToEven ?x384 (fp.mul roundNearestTiesToEven (fp #b1 #b10000000001 #x21182b62149d8) x4))))
 (let ((?x390 (fp.add roundNearestTiesToEven ?x387 (fp.mul roundNearestTiesToEven (fp #b1 #b10000000011 #x78734481de2cc) x5))))
 (let ((?x393 (fp.add roundNearestTiesToEven ?x390 (fp.mul roundNearestTiesToEven (fp #b1 #b10000000101 #x18933ba7a34b5) x6))))
 (let ((?x396 (fp.add roundNearestTiesToEven ?x393 (fp.mul roundNearestTiesToEven (fp #b1 #b10000000011 #x3c4c1a703b8b7) x7))))
 (let ((?x399 (fp.add roundNearestTiesToEven ?x396 (fp.mul roundNearestTiesToEven (fp #b0 #b10000000101 #x2a27fbc02290a) x8))))
 (let ((?x402 (fp.add roundNearestTiesToEven ?x399 (fp.mul roundNearestTiesToEven (fp #b1 #b10000000011 #xc8991bbd5c516) x9))))
 (let ((?x405 (fp.add roundNearestTiesToEven ?x402 (fp.mul roundNearestTiesToEven (fp #b0 #b10000000100 #xe0a1f034d7b36) x10))))
 (fp.leq ?x405 (fp #b0 #b10000000001 #xd35bbf41f1130)))))))))))))
(assert
 (let ((?x412 (fp.add roundNearestTiesToEven (fp.mul roundNearestTiesToEven (fp #b0 #b10000000101 #x92ded4b244488) x0) (fp.mul roundNearestTiesToEven (fp #b1 #b10000000100 #xc32ba8245fc8c) x1))))
 (let ((?x415 (fp.add roundNearestTiesToEven ?x412 (fp.mul roundNearestTiesToEven (fp #b1 #b10000000101 #xc3f006fc22c39) x2))))
 (let ((?x418 (fp.add roundNearestTiesToEven ?x415 (fp.mul roundNearestTiesToEven (fp #b1 #b10000000100 #x8b55fdf263fc4) x3))))
 (let ((?x421 (fp.add roundNearestTiesToEven ?x418 (fp.mul roundNearestTiesToEven (fp #b0 #b10000000101 #x0723edcfa54c1) x4))))
 (let ((?x424 (fp.add roundNearestTiesToEven ?x421 (fp.mul roundNearestTiesToEven (fp #b0 #b10000000101 #x0becafbd46945) x5))))
 (let ((?x427 (fp.add roundNearestTiesToEven ?x424 (fp.mul roundNearestTiesToEven (fp #b0 #b01111111111 #x69ee077377460) x6))))
 (let ((?x430 (fp.add roundNearestTiesToEven ?x427 (fp.mul roundNearestTiesToEven (fp #b1 #b10000000101 #x095bd7299516f) x7))))
 (let ((?x433 (fp.add roundNearestTiesToEven ?x430 (fp.mul roundNearestTiesToEven (fp #b1 #b10000000010 #x1e04db55ca0a1) x8))))
 (let ((?x436 (fp.add roundNearestTiesToEven ?x433 (fp.mul roundNearestTiesToEven (fp #b1 #b10000000011 #x789d6619bbf73) x9))))
 (let ((?x439 (fp.add roundNearestTiesToEven ?x436 (fp.mul roundNearestTiesToEven (fp #b1 #b10000000011 #xed5f47d03cd8c) x10))))
 (fp.leq ?x439 (fp #b1 #b10000000011 #xeed21cdc7be4c)))))))))))))
(assert
 (let ((?x446 (fp.add roundNearestTiesToEven (fp.mul roundNearestTiesToEven (fp #b1 #b10000000011 #x1262433e7d345) x0) (fp.mul roundNearestTiesToEven (fp #b0 #b10000000101 #x24f2dbafee32d) x1))))
 (let ((?x449 (fp.add roundNearestTiesToEven ?x446 (fp.mul roundNearestTiesToEven (fp #b1 #b10000000101 #x0fd81ab910f8e) x2))))
 (let ((?x452 (fp.add roundNearestTiesToEven ?x449 (fp.mul roundNearestTiesToEven (fp #b1 #b10000000000 #x4684920c894e8) x3))))
 (let ((?x455 (fp.add roundNearestTiesToEven ?x452 (fp.mul roundNearestTiesToEven (fp #b0 #b10000000101 #xa37c4f66cb76b) x4))))
 (let ((?x458 (fp.add roundNearestTiesToEven ?x455 (fp.mul roundNearestTiesToEven (fp #b0 #b10000000010 #xdf471282d03f0) x5))))
 (let ((?x461 (fp.add roundNearestTiesToEven ?x458 (fp.mul roundNearestTiesToEven (fp #b0 #b10000000100 #xc1f78286d40a0) x6))))
 (let ((?x464 (fp.add roundNearestTiesToEven ?x461 (fp.mul roundNearestTiesToEven (fp #b1 #b10000000011 #x1699ee047986a) x7))))
 (let ((?x467 (fp.add roundNearestTiesToEven ?x464 (fp.mul roundNearestTiesToEven (fp #b0 #b10000000000 #x94c215b1d2f5c) x8))))
 (let ((?x470 (fp.add roundNearestTiesToEven ?x467 (fp.mul roundNearestTiesToEven (fp #b0 #b10000000101 #x43cb041e8811c) x9))))
 (let ((?x473 (fp.add roundNearestTiesToEven ?x470 (fp.mul roundNearestTiesToEven (fp #b0 #b10000000100 #x2d341778b1efe) x10))))
 (fp.leq ?x473 (fp #b1 #b10000000101 #x000827b4141ca)))))))))))))
(assert
 (let ((?x480 (fp.add roundNearestTiesToEven (fp.mul roundNearestTiesToEven (fp #b1 #b10000000101 #x747def6ef13fc) x0) (fp.mul roundNearestTiesToEven (fp #b1 #b10000000010 #x9f0cc0a08f49c) x1))))
 (let ((?x483 (fp.add roundNearestTiesToEven ?x480 (fp.mul roundNearestTiesToEven (fp #b0 #b10000000011 #xbf5b5e879db93) x2))))
 (let ((?x486 (fp.add roundNearestTiesToEven ?x483 (fp.mul roundNearestTiesToEven (fp #b1 #b10000000010 #xdc57298d36005) x3))))
 (let ((?x489 (fp.add roundNearestTiesToEven ?x486 (fp.mul roundNearestTiesToEven (fp #b1 #b10000000101 #x7cd9c613a4e55) x4))))
 (let ((?x492 (fp.add roundNearestTiesToEven ?x489 (fp.mul roundNearestTiesToEven (fp #b0 #b01111111111 #xe6d32d190726c) x5))))
 (let ((?x495 (fp.add roundNearestTiesToEven ?x492 (fp.mul roundNearestTiesToEven (fp #b1 #b10000000011 #xb3806a96035a2) x6))))
 (let ((?x498 (fp.add roundNearestTiesToEven ?x495 (fp.mul roundNearestTiesToEven (fp #b1 #b10000000101 #x8a7a1c1fc2521) x7))))
 (let ((?x501 (fp.add roundNearestTiesToEven ?x498 (fp.mul roundNearestTiesToEven (fp #b1 #b10000000011 #x0cc7d83cdc6aa) x8))))
 (let ((?x504 (fp.add roundNearestTiesToEven ?x501 (fp.mul roundNearestTiesToEven (fp #b1 #b10000000101 #x0f297ebae8b7c) x9))))
 (let ((?x507 (fp.add roundNearestTiesToEven ?x504 (fp.mul roundNearestTiesToEven (fp #b1 #b10000000101 #x9d7945edb5526) x10))))
 (fp.leq ?x507 (fp #b0 #b10000000011 #x9003f90170080)))))))))))))
(assert
 (let ((?x514 (fp.add roundNearestTiesToEven (fp.mul roundNearestTiesToEven (fp #b1 #b10000000011 #x49e5c27827133) x0) (fp.mul roundNearestTiesToEven (fp #b1 #b10000000101 #x047f8edc9a507) x1))))
 (let ((?x517 (fp.add roundNearestTiesToEven ?x514 (fp.mul roundNearestTiesToEven (fp #b0 #b10000000101 #x7cc8f01262628) x2))))
 (let ((?x520 (fp.add roundNearestTiesToEven ?x517 (fp.mul roundNearestTiesToEven (fp #b0 #b10000000001 #xa1ffc00317a48) x3))))
 (let ((?x523 (fp.add roundNearestTiesToEven ?x520 (fp.mul roundNearestTiesToEven (fp #b0 #b10000000101 #x240c9ab4c5755) x4))))
 (let ((?x526 (fp.add roundNearestTiesToEven ?x523 (fp.mul roundNearestTiesToEven (fp #b1 #b10000000101 #x25555b53a6bce) x5))))
 (let ((?x529 (fp.add roundNearestTiesToEven ?x526 (fp.mul roundNearestTiesToEven (fp #b0 #b10000000010 #xfde8a7a429f64) x6))))
 (let ((?x532 (fp.add roundNearestTiesToEven ?x529 (fp.mul roundNearestTiesToEven (fp #b0 #b10000000100 #x1a4cc1416d195) x7))))
 (let ((?x535 (fp.add roundNearestTiesToEven ?x532 (fp.mul roundNearestTiesToEven (fp #b0 #b10000000001 #xc89bb2c6ba850) x8))))
 (let ((?x538 (fp.add roundNearestTiesToEven ?x535 (fp.mul roundNearestTiesToEven (fp #b1 #b10000000100 #xa1059e1a42703) x9))))
 (let ((?x541 (fp.add roundNearestTiesToEven ?x538 (fp.mul roundNearestTiesToEven (fp #b1 #b10000000101 #x0f58c008b03b6) x10))))
 (fp.leq ?x541 (fp #b0 #b10000000100 #x44a2228f913f4)))))))))))))
(assert
 (fp.geq x0 (fp #b1 #b10000100000 #x2a05f20000000)))
(assert
 (fp.leq x0 (fp #b0 #b10000100000 #x2a05f20000000)))
(assert
 (fp.geq x1 (fp #b1 #b10000100000 #x2a05f20000000)))
(assert
 (fp.leq x1 (fp #b0 #b10000100000 #x2a05f20000000)))
(assert
 (fp.geq x2 (fp #b1 #b10000100000 #x2a05f20000000)))
(assert
 (fp.leq x2 (fp #b0 #b10000100000 #x2a05f20000000)))
(assert
 (fp.geq x3 (fp #b1 #b10000100000 #x2a05f20000000)))
(assert
 (fp.leq x3 (fp #b0 #b10000100000 #x2a05f20000000)))
(assert
 (fp.geq x4 (fp #b1 #b10000100000 #x2a05f20000000)))
(assert
 (fp.leq x4 (fp #b0 #b10000100000 #x2a05f20000000)))
(assert
 (fp.geq x5 (fp #b1 #b10000100000 #x2a05f20000000)))
(assert
 (fp.leq x5 (fp #b0 #b10000100000 #x2a05f20000000)))
(assert
 (fp.geq x6 (fp #b1 #b10000100000 #x2a05f20000000)))
(assert
 (fp.leq x6 (fp #b0 #b10000100000 #x2a05f20000000)))
(assert
 (fp.geq x7 (fp #b1 #b10000100000 #x2a05f20000000)))
(assert
 (fp.leq x7 (fp #b0 #b10000100000 #x2a05f20000000)))
(assert
 (fp.geq x8 (fp #b1 #b10000100000 #x2a05f20000000)))
(assert
 (fp.leq x8 (fp #b0 #b10000100000 #x2a05f20000000)))
(assert
 (fp.geq x9 (fp #b1 #b10000100000 #x2a05f20000000)))
(assert
 (fp.leq x9 (fp #b0 #b10000100000 #x2a05f20000000)))
(assert
 (fp.geq x10 (fp #b1 #b10000100000 #x2a05f20000000)))
(assert
 (fp.leq x10 (fp #b0 #b10000100000 #x2a05f20000000)))
(check-sat)
(exit)
